p cnf 20 15
-7 11 18 10 13 0
2 14 13 -17 9 0
-1 -8 19 -2 13 0
20 -11 -1 9 12 0
6 -7 2 10 19 0
-7 17 5 2 9 0
-18 -1 16 -11 9 0
18 -9 15 4 -13 0
12 -1 -15 -2 -20 0
-4 -17 7 12 -3 0
-9 -2 14 -1 13 0
12 -7 -18 -6 -16 0
-12 -9 6 -8 -18 0
-10 -19 -5 -15 -3 0
-17 -16 -13 -1 11 0
